Version identifier: 22.1.0.0 | 2022-03-09 | 1a383f8ce
CPXPARAM_Read_DataCheck                          1
1 of 1 MIP starts provided solutions.
MIP start 'm1' defined initial solution with objective 79.0000.
Tried aggregator 4 times.
MIP Presolve eliminated 193776 rows and 14473 columns.
MIP Presolve modified 1824 coefficients.
Aggregator did 182928 substitutions.
Reduced MIP has 15336 rows, 185591 columns, and 386899 nonzeros.
Reduced MIP has 185543 binaries, 48 generals, 0 SOSs, and 0 indicators.
Presolve time = 2.91 sec. (2994.66 ticks)
Tried aggregator 1 time.
Detecting symmetries...
Reduced MIP has 15336 rows, 185591 columns, and 386899 nonzeros.
Reduced MIP has 185543 binaries, 48 generals, 0 SOSs, and 0 indicators.
Presolve time = 0.49 sec. (297.39 ticks)
Probing fixed 72 vars, tightened 0 bounds.
Probing time = 0.82 sec. (88.35 ticks)
Clique table members: 374605.
MIP emphasis: balance optimality and feasibility.
MIP search method: dynamic search.
Parallel mode: deterministic, using up to 8 threads.
Root relaxation solution time = 2.01 sec. (1355.46 ticks)

        Nodes                                         Cuts/
   Node  Left     Objective  IInf  Best Integer    Best Bound    ItCnt     Gap

*     0+    0                           79.0000        0.0000           100.00%
      0     0       48.4055 11712       79.0000       48.4055       28   38.73%
      0     0        cutoff             79.0000                     59    0.00%
Elapsed time = 31.18 sec. (28290.21 ticks, tree = 0.01 MB, solutions = 1)

Gomory fractional cuts applied:  31

Root node processing (before b&c):
  Real time             =   31.19 sec. (28303.08 ticks)
Parallel b&c, 8 threads:
  Real time             =    0.00 sec. (0.00 ticks)
  Sync time (average)   =    0.00 sec.
  Wait time (average)   =    0.00 sec.
                          ------------
Total (root+branch&cut) =   31.19 sec. (28303.08 ticks)
